1218700
96,41,26,1,84,4,2,63,88,7,90,87,49,82,34,52,54,43,61,29,76,17,74,40,20,19,95,5,68,55,9,48,92,30,59,69,47,36,73,62,12,67,71,35,98,79,37,86,0,31,8,32,56,46,94,65,3,6,85,13,38,51,89,70,33,97,22,27,45,10,53,64,23,42,58,93,25,78,16,18,11,28,39,50,24,77,83,91,21,72,80,44,75,14,81,15,57,60,66